n_machines = 10;
n_resources = 20;
n_jobs = 200;
horizon = 989;
LB = 98;
n_jobs_per_resource = [10, 10, 10, 10, 10, 10, 10, 10, 10, 10, 10, 10, 10, 10, 10, 10, 10, 10, 10, 10];
duration = [2, 8, 4, 7, 9, 5, 9, 5, 1, 3, 6, 3, 2, 9, 7, 2, 3, 4, 5, 6, 1, 5, 3, 7, 8, 2, 1, 1, 7, 5, 9, 8, 2, 5, 3, 7, 8, 2, 2, 1, 8, 5, 9, 9, 4, 1, 6, 8, 7, 6, 8, 2, 7, 5, 9, 7, 1, 6, 3, 5, 6, 3, 6, 8, 8, 6, 4, 3, 1, 9, 6, 6, 8, 4, 5, 9, 3, 1, 1, 8, 7, 2, 5, 9, 6, 2, 6, 4, 7, 1, 7, 6, 6, 4, 3, 2, 9, 5, 6, 6, 2, 3, 5, 7, 7, 7, 4, 3, 8, 2, 3, 5, 1, 5, 2, 4, 3, 5, 6, 4, 9, 7, 4, 1, 1, 2, 4, 2, 6, 9, 1, 7, 8, 7, 2, 2, 7, 8, 4, 3, 7, 9, 5, 8, 1, 6, 9, 4, 4, 7, 7, 8, 2, 3, 9, 1, 4, 8, 3, 3, 4, 7, 1, 9, 2, 8, 5, 1, 2, 4, 1, 1, 6, 9, 3, 6, 5, 4, 6, 5, 6, 9, 2, 5, 4, 9, 3, 3, 1, 8, 8, 4, 2, 7, 5, 4, 4, 4, 5, 8]